NAME : portcgen-21-1
COMMENT : portcgen N=21, seed=1
TYPE : TSP
DIMENSION : 21
EDGE_WEIGHT_TYPE : EUC_2D
NODE_COORD_SECTION
1 -147002 -299943
2 -106548 -124938
3 -47732 39714
4 -16412 -94456
5 -352774 104848
6 -143958 -229916
7 -301173 84956
8 195962 239875
9 245862 -124990
10 -129191 -133020
11 39754 104149
12 -123872 -37160
13 25555 -7827
14 -256283 390797
15 -80521 73965
16 -107531 -1292
17 -37392 13512
18 -199868 211266
19 2355 258811
20 7425 -276493
21 96163 194252
